Data path: /scratch/opt/lxu/CFLG/benchmarks/random_B
Instance: r_25_0.1_36.txt
Result path: /scratch/opt/lxu/CFLG/results/random_B
Solver: Gurobi
Time limit: 3600
Formulation: LEFPI
Cover: Large
julia --project=. src/main.jl /scratch/opt/lxu/CFLG/benchmarks/random_B r_25_0.1_36.txt /scratch/opt/lxu/CFLG/results/random_B Gurobi 3600 LEFPI Large
/scratch/opt/lxu/CFLG/benchmarks/random_B Gurobi 3600.0 /scratch/opt/lxu/CFLG/results/random_B r_25_0.1_36.txt LEFPI Large
/scratch/opt/lxu/CFLG/benchmarks/random_B/r_25_0.1_36.txt

 read graph
data loaded

problem_graph/original graph: node: 25/25 edge: 36/36 dlt: 1.4522257607055817 break_avg_len: 0.7261128803527909 break_max_len: 0.9874679371971357elapsed CPU time: 0.028861 seconds
Set parameter TokenServer to value "solice01.zib.de"
Set parameter Threads to value 1
Set parameter OutputFlag to value 1
Set parameter MIPGap to value 0.0001
Set parameter MIPGapAbs to value 1
Set parameter TimeLimit to value 3599.971139
formulation:LEFPI0 36 25

 model loaded

Gurobi Optimizer version 12.0.1 build v12.0.1rc0 (linux64 - "Debian GNU/Linux 12 (bookworm)")

CPU model: Intel(R) Xeon(R) Gold 5222 CPU @ 3.80GHz, instruction set [SSE2|AVX|AVX2|AVX512]
Thread count: 8 physical cores, 16 logical processors, using up to 1 threads

Non-default parameters:
TimeLimit  3599.971139
MIPGapAbs  1
Threads  1

Optimize a model with 758 rows, 728 columns and 2138 nonzeros
Model fingerprint: 0x2b417999
Model has 523 simple general constraints
  523 INDICATOR
Variable types: 133 continuous, 595 integer (595 binary)
Coefficient statistics:
  Matrix range     [3e-01, 1e+00]
  Objective range  [1e+00, 1e+00]
  Bounds range     [3e-01, 3e+00]
  RHS range        [3e-01, 5e+00]
  GenCon rhs range [2e-03, 1e+00]
  GenCon coe range [1e+00, 1e+00]
Presolve added 296 rows and 0 columns
Presolve removed 0 rows and 122 columns
Presolve time: 0.04s
Presolved: 1054 rows, 606 columns, 5811 nonzeros
Variable types: 61 continuous, 545 integer (545 binary)
Found heuristic solution: objective 26.0000000
Found heuristic solution: objective 18.0000000
Found heuristic solution: objective 17.0000000

Root relaxation: objective 1.268726e+00, 720 iterations, 0.01 seconds (0.02 work units)

    Nodes    |    Current Node    |     Objective Bounds      |     Work
 Expl Unexpl |  Obj  Depth IntInf | Incumbent    BestBd   Gap | It/Node Time

     0     0    1.26873    0  145   17.00000    1.26873  92.5%     -    0s
H    0     0                      12.0000000    1.26873  89.4%     -    0s
H    0     0                       9.0000000    1.26873  85.9%     -    0s
H    0     0                       6.0000000    1.26873  78.9%     -    0s
     0     0    1.78355    0  182    6.00000    1.78355  70.3%     -    0s
     0     0    2.04417    0  189    6.00000    2.04417  65.9%     -    0s
     0     0    2.04631    0  207    6.00000    2.04631  65.9%     -    0s
     0     0    2.04631    0  196    6.00000    2.04631  65.9%     -    0s
     0     0    2.04631    0  206    6.00000    2.04631  65.9%     -    0s
     0     0    2.52358    0  154    6.00000    2.52358  57.9%     -    0s
     0     0    2.52899    0  143    6.00000    2.52899  57.9%     -    0s
     0     0    2.53076    0  152    6.00000    2.53076  57.8%     -    0s
     0     0    2.53076    0  154    6.00000    2.53076  57.8%     -    0s
     0     0    3.00000    0  147    6.00000    3.00000  50.0%     -    0s
     0     0    3.00000    0  148    6.00000    3.00000  50.0%     -    0s
     0     0    3.00000    0  139    6.00000    3.00000  50.0%     -    0s
H    0     0                       5.0000000    3.00000  40.0%     -    0s
     0     0    3.00000    0  119    5.00000    3.00000  40.0%     -    0s
     0     0    3.00000    0   74    5.00000    3.00000  40.0%     -    0s
     0     0    3.00000    0  121    5.00000    3.00000  40.0%     -    0s
     0     0    3.00000    0   84    5.00000    3.00000  40.0%     -    0s
     0     0    3.00000    0   91    5.00000    3.00000  40.0%     -    0s
     0     0    3.00000    0   90    5.00000    3.00000  40.0%     -    0s
     0     0    3.00000    0   83    5.00000    3.00000  40.0%     -    0s
     0     2    3.00000    0   27    5.00000    3.00000  40.0%     -    0s
H  285     8                       4.0000000    3.00000  25.0%  56.3    1s

Cutting planes:
  Learned: 23
  Cover: 51
  Implied bound: 20
  MIR: 66
  StrongCG: 9
  GUB cover: 5
  Zero half: 2
  RLT: 29
  Relax-and-lift: 13
  BQP: 6
  PSD: 1

Explored 286 nodes (21509 simplex iterations) in 1.07 seconds (1.01 work units)
Thread count was 1 (of 16 available processors)

Solution count 8: 4 5 6 ... 26

Optimal solution found (tolerance 1.00e-04)
Best objective 4.000000000000e+00, best bound 3.000000000000e+00, gap 25.0000%

User-callback calls 1742, time in user-callback 0.00 sec
Stat(MathOptInterface.OPTIMAL, 4.0, 3.0000000000000004, 0.2499999999999999, 0.028861, 1.0703160762786865, 286, Main.CFLG.LEFPI, "", #undef)
